\Problem name: compact

Minimize
OBJROW: C
Subject To
ord(0,1):  - x(0,0) + x(0,2) >= 8
ord(0,2):  x(0,1) - x(0,2) >= 3
ord(1,1):  - x(1,0) + x(1,1) >= 9
ord(1,2):  - x(1,1) + x(1,2) >= 6
ord(2,1):  x(2,1) - x(2,2) >= 9
ord(2,2):  x(2,0) - x(2,1) >= 9
ord(3,1):  - x(3,0) + x(3,2) >= 7
ord(3,2):  x(3,1) - x(3,2) >= 9
triangle2(0,1,0):  y(0,1,0) + y(1,0,0) = 1
triangle2(0,1,1):  y(0,1,1) + y(1,0,1) = 1
triangle2(0,1,2):  y(0,1,2) + y(1,0,2) = 1
triangle2(0,2,0):  y(0,2,0) + y(2,0,0) = 1
triangle2(0,2,1):  y(0,2,1) + y(2,0,1) = 1
triangle2(0,2,2):  y(0,2,2) + y(2,0,2) = 1
triangle2(0,3,0):  y(0,3,0) + y(3,0,0) = 1
triangle2(0,3,1):  y(0,3,1) + y(3,0,1) = 1
triangle2(0,3,2):  y(0,3,2) + y(3,0,2) = 1
triangle2(1,2,0):  y(1,2,0) + y(2,1,0) = 1
triangle2(1,2,1):  y(1,2,1) + y(2,1,1) = 1
triangle2(1,2,2):  y(1,2,2) + y(2,1,2) = 1
triangle2(1,3,0):  y(1,3,0) + y(3,1,0) = 1
triangle2(1,3,1):  y(1,3,1) + y(3,1,1) = 1
triangle2(1,3,2):  y(1,3,2) + y(3,1,2) = 1
triangle2(2,3,0):  y(2,3,0) + y(3,2,0) = 1
triangle2(2,3,1):  y(2,3,1) + y(3,2,1) = 1
triangle2(2,3,2):  y(2,3,2) + y(3,2,2) = 1
MCLinV(0,1,0):  x(0,0) - v(0,1,0) - x(1,0) = 9
MCLinV(1,0,0):  - x(0,0) - v(1,0,0) + x(1,0) = 8
MCLin1(0,1,0):  u(0,1,0) >= -0
MCLin2(0,1,0):  -71 y(1,0,0) - u(0,1,0) <= -0
MCLin3(0,1,0):  56 y(1,0,0) + v(0,1,0) - u(0,1,0) <= 56
MCLin4(0,1,0):  56 y(1,0,0) - u(0,1,0) >= -0
MCLin5(0,1,0):  -71 y(1,0,0) + v(0,1,0) - u(0,1,0) >= -71
MCLin6(1,0,0):  u(1,0,0) >= -0
MCLin7(1,0,0):  -73 y(0,1,0) - u(1,0,0) <= -0
MCLin8(1,0,0):  54 y(0,1,0) + v(1,0,0) - u(1,0,0) <= 54
MCLin9(1,0,0):  54 y(0,1,0) - u(1,0,0) >= -0
MCLin10(1,0,0):  -73 y(0,1,0) + v(1,0,0) - u(1,0,0) >= -73
MCLinV(0,1,1):  x(0,1) - v(0,1,1) - x(1,1) = 6
MCLinV(1,0,1):  - x(0,1) - v(1,0,1) + x(1,1) = 6
MCLin1(0,1,1):  u(0,1,1) >= -0
MCLin2(0,1,1):  -66 y(1,0,1) - u(0,1,1) <= -0
MCLin3(0,1,1):  61 y(1,0,1) + v(0,1,1) - u(0,1,1) <= 61
MCLin4(0,1,1):  61 y(1,0,1) - u(0,1,1) >= -0
MCLin5(0,1,1):  -66 y(1,0,1) + v(0,1,1) - u(0,1,1) >= -66
MCLin6(1,0,1):  u(1,0,1) >= -0
MCLin7(1,0,1):  -73 y(0,1,1) - u(1,0,1) <= -0
MCLin8(1,0,1):  54 y(0,1,1) + v(1,0,1) - u(1,0,1) <= 54
MCLin9(1,0,1):  54 y(0,1,1) - u(1,0,1) >= -0
MCLin10(1,0,1):  -73 y(0,1,1) + v(1,0,1) - u(1,0,1) >= -73
MCLinV(0,1,2):  x(0,2) - v(0,1,2) - x(1,2) = 5
MCLinV(1,0,2):  - x(0,2) - v(1,0,2) + x(1,2) = 3
MCLin1(0,1,2):  u(0,1,2) >= -0
MCLin2(0,1,2):  -74 y(1,0,2) - u(0,1,2) <= -0
MCLin3(0,1,2):  53 y(1,0,2) + v(0,1,2) - u(0,1,2) <= 53
MCLin4(0,1,2):  53 y(1,0,2) - u(0,1,2) >= -0
MCLin5(0,1,2):  -74 y(1,0,2) + v(0,1,2) - u(0,1,2) >= -74
MCLin6(1,0,2):  u(1,0,2) >= -0
MCLin7(1,0,2):  -61 y(0,1,2) - u(1,0,2) <= -0
MCLin8(1,0,2):  66 y(0,1,2) + v(1,0,2) - u(1,0,2) <= 66
MCLin9(1,0,2):  66 y(0,1,2) - u(1,0,2) >= -0
MCLin10(1,0,2):  -61 y(0,1,2) + v(1,0,2) - u(1,0,2) >= -61
MCLinV(0,2,0):  x(0,0) - v(0,2,0) - x(2,0) = 3
MCLinV(2,0,0):  - x(0,0) - v(2,0,0) + x(2,0) = 8
MCLin1(0,2,0):  u(0,2,0) >= -0
MCLin2(0,2,0):  -82 y(2,0,0) - u(0,2,0) <= -0
MCLin3(0,2,0):  44 y(2,0,0) + v(0,2,0) - u(0,2,0) <= 44
MCLin4(0,2,0):  44 y(2,0,0) - u(0,2,0) >= -0
MCLin5(0,2,0):  -82 y(2,0,0) + v(0,2,0) - u(0,2,0) >= -82
MCLin6(2,0,0):  u(2,0,0) >= -0
MCLin7(2,0,0):  -55 y(0,2,0) - u(2,0,0) <= -0
MCLin8(2,0,0):  71 y(0,2,0) + v(2,0,0) - u(2,0,0) <= 71
MCLin9(2,0,0):  71 y(0,2,0) - u(2,0,0) >= -0
MCLin10(2,0,0):  -55 y(0,2,0) + v(2,0,0) - u(2,0,0) >= -55
MCLinV(0,2,1):  x(0,1) - v(0,2,1) - x(2,1) = 9
MCLinV(2,0,1):  - x(0,1) - v(2,0,1) + x(2,1) = 6
MCLin1(0,2,1):  u(0,2,1) >= -0
MCLin2(0,2,1):  -68 y(2,0,1) - u(0,2,1) <= -0
MCLin3(0,2,1):  58 y(2,0,1) + v(0,2,1) - u(0,2,1) <= 58
MCLin4(0,2,1):  58 y(2,0,1) - u(0,2,1) >= -0
MCLin5(0,2,1):  -68 y(2,0,1) + v(0,2,1) - u(0,2,1) >= -68
MCLin6(2,0,1):  u(2,0,1) >= -0
MCLin7(2,0,1):  -73 y(0,2,1) - u(2,0,1) <= -0
MCLin8(2,0,1):  53 y(0,2,1) + v(2,0,1) - u(2,0,1) <= 53
MCLin9(2,0,1):  53 y(0,2,1) - u(2,0,1) >= -0
MCLin10(2,0,1):  -73 y(0,2,1) + v(2,0,1) - u(2,0,1) >= -73
MCLinV(0,2,2):  x(0,2) - v(0,2,2) - x(2,2) = 9
MCLinV(2,0,2):  - x(0,2) - v(2,0,2) + x(2,2) = 3
MCLin1(0,2,2):  u(0,2,2) >= -0
MCLin2(0,2,2):  -62 y(2,0,2) - u(0,2,2) <= -0
MCLin3(0,2,2):  64 y(2,0,2) + v(0,2,2) - u(0,2,2) <= 64
MCLin4(0,2,2):  64 y(2,0,2) - u(0,2,2) >= -0
MCLin5(0,2,2):  -62 y(2,0,2) + v(0,2,2) - u(0,2,2) >= -62
MCLin6(2,0,2):  u(2,0,2) >= -0
MCLin7(2,0,2):  -76 y(0,2,2) - u(2,0,2) <= -0
MCLin8(2,0,2):  50 y(0,2,2) + v(2,0,2) - u(2,0,2) <= 50
MCLin9(2,0,2):  50 y(0,2,2) - u(2,0,2) >= -0
MCLin10(2,0,2):  -76 y(0,2,2) + v(2,0,2) - u(2,0,2) >= -76
MCLinV(0,3,0):  x(0,0) - v(0,3,0) - x(3,0) = 7
MCLinV(3,0,0):  - x(0,0) - v(3,0,0) + x(3,0) = 8
MCLin1(0,3,0):  u(0,3,0) >= -0
MCLin2(0,3,0):  -65 y(3,0,0) - u(0,3,0) <= -0
MCLin3(0,3,0):  58 y(3,0,0) + v(0,3,0) - u(0,3,0) <= 58
MCLin4(0,3,0):  58 y(3,0,0) - u(0,3,0) >= -0
MCLin5(0,3,0):  -65 y(3,0,0) + v(0,3,0) - u(0,3,0) >= -65
MCLin6(3,0,0):  u(3,0,0) >= -0
MCLin7(3,0,0):  -73 y(0,3,0) - u(3,0,0) <= -0
MCLin8(3,0,0):  50 y(0,3,0) + v(3,0,0) - u(3,0,0) <= 50
MCLin9(3,0,0):  50 y(0,3,0) - u(3,0,0) >= -0
MCLin10(3,0,0):  -73 y(0,3,0) + v(3,0,0) - u(3,0,0) >= -73
MCLinV(0,3,1):  x(0,1) - v(0,3,1) - x(3,1) = 8
MCLinV(3,0,1):  - x(0,1) - v(3,0,1) + x(3,1) = 6
MCLin1(0,3,1):  u(0,3,1) >= -0
MCLin2(0,3,1):  -71 y(3,0,1) - u(0,3,1) <= -0
MCLin3(0,3,1):  52 y(3,0,1) + v(0,3,1) - u(0,3,1) <= 52
MCLin4(0,3,1):  52 y(3,0,1) - u(0,3,1) >= -0
MCLin5(0,3,1):  -71 y(3,0,1) + v(0,3,1) - u(0,3,1) >= -71
MCLin6(3,0,1):  u(3,0,1) >= -0
MCLin7(3,0,1):  -66 y(0,3,1) - u(3,0,1) <= -0
MCLin8(3,0,1):  57 y(0,3,1) + v(3,0,1) - u(3,0,1) <= 57
MCLin9(3,0,1):  57 y(0,3,1) - u(3,0,1) >= -0
MCLin10(3,0,1):  -66 y(0,3,1) + v(3,0,1) - u(3,0,1) >= -66
MCLinV(0,3,2):  x(0,2) - v(0,3,2) - x(3,2) = 9
MCLinV(3,0,2):  - x(0,2) - v(3,0,2) + x(3,2) = 3
MCLin1(0,3,2):  u(0,3,2) >= -0
MCLin2(0,3,2):  -66 y(3,0,2) - u(0,3,2) <= -0
MCLin3(0,3,2):  57 y(3,0,2) + v(0,3,2) - u(0,3,2) <= 57
MCLin4(0,3,2):  57 y(3,0,2) - u(0,3,2) >= -0
MCLin5(0,3,2):  -66 y(3,0,2) + v(0,3,2) - u(0,3,2) >= -66
MCLin6(3,0,2):  u(3,0,2) >= -0
MCLin7(3,0,2):  -69 y(0,3,2) - u(3,0,2) <= -0
MCLin8(3,0,2):  54 y(0,3,2) + v(3,0,2) - u(3,0,2) <= 54
MCLin9(3,0,2):  54 y(0,3,2) - u(3,0,2) >= -0
MCLin10(3,0,2):  -69 y(0,3,2) + v(3,0,2) - u(3,0,2) >= -69
MCLinV(1,2,0):  x(1,0) - v(1,2,0) - x(2,0) = 3
MCLinV(2,1,0):  - x(1,0) - v(2,1,0) + x(2,0) = 9
MCLin1(1,2,0):  u(1,2,0) >= -0
MCLin2(1,2,0):  -82 y(2,1,0) - u(1,2,0) <= -0
MCLin3(1,2,0):  41 y(2,1,0) + v(1,2,0) - u(1,2,0) <= 41
MCLin4(1,2,0):  41 y(2,1,0) - u(1,2,0) >= -0
MCLin5(1,2,0):  -82 y(2,1,0) + v(1,2,0) - u(1,2,0) >= -82
MCLin6(2,1,0):  u(2,1,0) >= -0
MCLin7(2,1,0):  -53 y(1,2,0) - u(2,1,0) <= -0
MCLin8(2,1,0):  70 y(1,2,0) + v(2,1,0) - u(2,1,0) <= 70
MCLin9(2,1,0):  70 y(1,2,0) - u(2,1,0) >= -0
MCLin10(2,1,0):  -53 y(1,2,0) + v(2,1,0) - u(2,1,0) >= -53
MCLinV(1,2,1):  x(1,1) - v(1,2,1) - x(2,1) = 9
MCLinV(2,1,1):  - x(1,1) - v(2,1,1) + x(2,1) = 6
MCLin1(1,2,1):  u(1,2,1) >= -0
MCLin2(1,2,1):  -70 y(2,1,1) - u(1,2,1) <= -0
MCLin3(1,2,1):  53 y(2,1,1) + v(1,2,1) - u(1,2,1) <= 53
MCLin4(1,2,1):  53 y(2,1,1) - u(1,2,1) >= -0
MCLin5(1,2,1):  -70 y(2,1,1) + v(1,2,1) - u(1,2,1) >= -70
MCLin6(2,1,1):  u(2,1,1) >= -0
MCLin7(2,1,1):  -68 y(1,2,1) - u(2,1,1) <= -0
MCLin8(2,1,1):  55 y(1,2,1) + v(2,1,1) - u(2,1,1) <= 55
MCLin9(2,1,1):  55 y(1,2,1) - u(2,1,1) >= -0
MCLin10(2,1,1):  -68 y(1,2,1) + v(2,1,1) - u(2,1,1) >= -68
MCLinV(1,2,2):  x(1,2) - v(1,2,2) - x(2,2) = 9
MCLinV(2,1,2):  - x(1,2) - v(2,1,2) + x(2,2) = 5
MCLin1(1,2,2):  u(1,2,2) >= -0
MCLin2(1,2,2):  -55 y(2,1,2) - u(1,2,2) <= -0
MCLin3(1,2,2):  68 y(2,1,2) + v(1,2,2) - u(1,2,2) <= 68
MCLin4(1,2,2):  68 y(2,1,2) - u(1,2,2) >= -0
MCLin5(1,2,2):  -55 y(2,1,2) + v(1,2,2) - u(1,2,2) >= -55
MCLin6(2,1,2):  u(2,1,2) >= -0
MCLin7(2,1,2):  -82 y(1,2,2) - u(2,1,2) <= -0
MCLin8(2,1,2):  41 y(1,2,2) + v(2,1,2) - u(2,1,2) <= 41
MCLin9(2,1,2):  41 y(1,2,2) - u(2,1,2) >= -0
MCLin10(2,1,2):  -82 y(1,2,2) + v(2,1,2) - u(2,1,2) >= -82
MCLinV(1,3,0):  x(1,0) - v(1,3,0) - x(3,0) = 7
MCLinV(3,1,0):  - x(1,0) - v(3,1,0) + x(3,0) = 9
MCLin1(1,3,0):  u(1,3,0) >= -0
MCLin2(1,3,0):  -65 y(3,1,0) - u(1,3,0) <= -0
MCLin3(1,3,0):  55 y(3,1,0) + v(1,3,0) - u(1,3,0) <= 55
MCLin4(1,3,0):  55 y(3,1,0) - u(1,3,0) >= -0
MCLin5(1,3,0):  -65 y(3,1,0) + v(1,3,0) - u(1,3,0) >= -65
MCLin6(3,1,0):  u(3,1,0) >= -0
MCLin7(3,1,0):  -71 y(1,3,0) - u(3,1,0) <= -0
MCLin8(3,1,0):  49 y(1,3,0) + v(3,1,0) - u(3,1,0) <= 49
MCLin9(3,1,0):  49 y(1,3,0) - u(3,1,0) >= -0
MCLin10(3,1,0):  -71 y(1,3,0) + v(3,1,0) - u(3,1,0) >= -71
MCLinV(1,3,1):  x(1,1) - v(1,3,1) - x(3,1) = 8
MCLinV(3,1,1):  - x(1,1) - v(3,1,1) + x(3,1) = 6
MCLin1(1,3,1):  u(1,3,1) >= -0
MCLin2(1,3,1):  -73 y(3,1,1) - u(1,3,1) <= -0
MCLin3(1,3,1):  47 y(3,1,1) + v(1,3,1) - u(1,3,1) <= 47
MCLin4(1,3,1):  47 y(3,1,1) - u(1,3,1) >= -0
MCLin5(1,3,1):  -73 y(3,1,1) + v(1,3,1) - u(1,3,1) >= -73
MCLin6(3,1,1):  u(3,1,1) >= -0
MCLin7(3,1,1):  -61 y(1,3,1) - u(3,1,1) <= -0
MCLin8(3,1,1):  59 y(1,3,1) + v(3,1,1) - u(3,1,1) <= 59
MCLin9(3,1,1):  59 y(1,3,1) - u(3,1,1) >= -0
MCLin10(3,1,1):  -61 y(1,3,1) + v(3,1,1) - u(3,1,1) >= -61
MCLinV(1,3,2):  x(1,2) - v(1,3,2) - x(3,2) = 9
MCLinV(3,1,2):  - x(1,2) - v(3,1,2) + x(3,2) = 5
MCLin1(1,3,2):  u(1,3,2) >= -0
MCLin2(1,3,2):  -59 y(3,1,2) - u(1,3,2) <= -0
MCLin3(1,3,2):  61 y(3,1,2) + v(1,3,2) - u(1,3,2) <= 61
MCLin4(1,3,2):  61 y(3,1,2) - u(1,3,2) >= -0
MCLin5(1,3,2):  -59 y(3,1,2) + v(1,3,2) - u(1,3,2) >= -59
MCLin6(3,1,2):  u(3,1,2) >= -0
MCLin7(3,1,2):  -75 y(1,3,2) - u(3,1,2) <= -0
MCLin8(3,1,2):  45 y(1,3,2) + v(3,1,2) - u(3,1,2) <= 45
MCLin9(3,1,2):  45 y(1,3,2) - u(3,1,2) >= -0
MCLin10(3,1,2):  -75 y(1,3,2) + v(3,1,2) - u(3,1,2) >= -75
MCLinV(2,3,0):  x(2,0) - v(2,3,0) - x(3,0) = 7
MCLinV(3,2,0):  - x(2,0) - v(3,2,0) + x(3,0) = 3
MCLin1(2,3,0):  u(2,3,0) >= -0
MCLin2(2,3,0):  -47 y(3,2,0) - u(2,3,0) <= -0
MCLin3(2,3,0):  72 y(3,2,0) + v(2,3,0) - u(2,3,0) <= 72
MCLin4(2,3,0):  72 y(3,2,0) - u(2,3,0) >= -0
MCLin5(2,3,0):  -47 y(3,2,0) + v(2,3,0) - u(2,3,0) >= -47
MCLin6(3,2,0):  u(3,2,0) >= -0
MCLin7(3,2,0):  -82 y(2,3,0) - u(3,2,0) <= -0
MCLin8(3,2,0):  37 y(2,3,0) + v(3,2,0) - u(3,2,0) <= 37
MCLin9(3,2,0):  37 y(2,3,0) - u(3,2,0) >= -0
MCLin10(3,2,0):  -82 y(2,3,0) + v(3,2,0) - u(3,2,0) >= -82
MCLinV(2,3,1):  x(2,1) - v(2,3,1) - x(3,1) = 8
MCLinV(3,2,1):  - x(2,1) - v(3,2,1) + x(3,1) = 9
MCLin1(2,3,1):  u(2,3,1) >= -0
MCLin2(2,3,1):  -73 y(3,2,1) - u(2,3,1) <= -0
MCLin3(2,3,1):  46 y(3,2,1) + v(2,3,1) - u(2,3,1) <= 46
MCLin4(2,3,1):  46 y(3,2,1) - u(2,3,1) >= -0
MCLin5(2,3,1):  -73 y(3,2,1) + v(2,3,1) - u(2,3,1) >= -73
MCLin6(3,2,1):  u(3,2,1) >= -0
MCLin7(3,2,1):  -63 y(2,3,1) - u(3,2,1) <= -0
MCLin8(3,2,1):  56 y(2,3,1) + v(3,2,1) - u(3,2,1) <= 56
MCLin9(3,2,1):  56 y(2,3,1) - u(3,2,1) >= -0
MCLin10(3,2,1):  -63 y(2,3,1) + v(3,2,1) - u(3,2,1) >= -63
MCLinV(2,3,2):  x(2,2) - v(2,3,2) - x(3,2) = 9
MCLinV(3,2,2):  - x(2,2) - v(3,2,2) + x(3,2) = 9
MCLin1(2,3,2):  u(2,3,2) >= -0
MCLin2(2,3,2):  -74 y(3,2,2) - u(2,3,2) <= -0
MCLin3(2,3,2):  45 y(3,2,2) + v(2,3,2) - u(2,3,2) <= 45
MCLin4(2,3,2):  45 y(3,2,2) - u(2,3,2) >= -0
MCLin5(2,3,2):  -74 y(3,2,2) + v(2,3,2) - u(2,3,2) >= -74
MCLin6(3,2,2):  u(3,2,2) >= -0
MCLin7(3,2,2):  -63 y(2,3,2) - u(3,2,2) <= -0
MCLin8(3,2,2):  56 y(2,3,2) + v(3,2,2) - u(3,2,2) <= 56
MCLin9(3,2,2):  56 y(2,3,2) - u(3,2,2) >= -0
MCLin10(3,2,2):  -63 y(2,3,2) + v(3,2,2) - u(3,2,2) >= -63
makespan(0):  C - x(0,1) >= 6
makespan(1):  C - x(1,2) >= 5
makespan(2):  C - x(2,0) >= 3
makespan(3):  C - x(3,1) >= 8
Bounds
 0 <= C <= 82
 0 <= x(0,0) <= 65
 0 <= y(0,1,0) <= 1
 0 <= y(1,0,0) <= 1
 -71 <= v(0,1,0) <= 56
 -73 <= v(1,0,0) <= 54
 -820 <= u(0,1,0)
 -820 <= u(1,0,0)
 0 <= y(0,2,0) <= 1
 0 <= y(2,0,0) <= 1
 -82 <= v(0,2,0) <= 44
 -55 <= v(2,0,0) <= 71
 -820 <= u(0,2,0)
 -820 <= u(2,0,0)
 0 <= y(0,3,0) <= 1
 0 <= y(3,0,0) <= 1
 -65 <= v(0,3,0) <= 58
 -73 <= v(3,0,0) <= 50
 -820 <= u(0,3,0)
 -820 <= u(3,0,0)
 0 <= x(1,0) <= 62
 0 <= y(1,2,0) <= 1
 0 <= y(2,1,0) <= 1
 -82 <= v(1,2,0) <= 41
 -53 <= v(2,1,0) <= 70
 -820 <= u(1,2,0)
 -820 <= u(2,1,0)
 0 <= y(1,3,0) <= 1
 0 <= y(3,1,0) <= 1
 -65 <= v(1,3,0) <= 55
 -71 <= v(3,1,0) <= 49
 -820 <= u(1,3,0)
 -820 <= u(3,1,0)
 18 <= x(2,0) <= 79
 0 <= y(2,3,0) <= 1
 0 <= y(3,2,0) <= 1
 -47 <= v(2,3,0) <= 72
 -82 <= v(3,2,0) <= 37
 -820 <= u(2,3,0)
 -820 <= u(3,2,0)
 0 <= x(3,0) <= 58
 11 <= x(0,1) <= 76
 0 <= y(0,1,1) <= 1
 0 <= y(1,0,1) <= 1
 -66 <= v(0,1,1) <= 61
 -73 <= v(1,0,1) <= 54
 -820 <= u(0,1,1)
 -820 <= u(1,0,1)
 0 <= y(0,2,1) <= 1
 0 <= y(2,0,1) <= 1
 -68 <= v(0,2,1) <= 58
 -73 <= v(2,0,1) <= 53
 -820 <= u(0,2,1)
 -820 <= u(2,0,1)
 0 <= y(0,3,1) <= 1
 0 <= y(3,0,1) <= 1
 -71 <= v(0,3,1) <= 52
 -66 <= v(3,0,1) <= 57
 -820 <= u(0,3,1)
 -820 <= u(3,0,1)
 9 <= x(1,1) <= 71
 0 <= y(1,2,1) <= 1
 0 <= y(2,1,1) <= 1
 -70 <= v(1,2,1) <= 53
 -68 <= v(2,1,1) <= 55
 -820 <= u(1,2,1)
 -820 <= u(2,1,1)
 0 <= y(1,3,1) <= 1
 0 <= y(3,1,1) <= 1
 -73 <= v(1,3,1) <= 47
 -61 <= v(3,1,1) <= 59
 -820 <= u(1,3,1)
 -820 <= u(3,1,1)
 9 <= x(2,1) <= 70
 0 <= y(2,3,1) <= 1
 0 <= y(3,2,1) <= 1
 -73 <= v(2,3,1) <= 46
 -63 <= v(3,2,1) <= 56
 -820 <= u(2,3,1)
 -820 <= u(3,2,1)
 16 <= x(3,1) <= 74
 8 <= x(0,2) <= 73
 0 <= y(0,1,2) <= 1
 0 <= y(1,0,2) <= 1
 -74 <= v(0,1,2) <= 53
 -61 <= v(1,0,2) <= 66
 -820 <= u(0,1,2)
 -820 <= u(1,0,2)
 0 <= y(0,2,2) <= 1
 0 <= y(2,0,2) <= 1
 -62 <= v(0,2,2) <= 64
 -76 <= v(2,0,2) <= 50
 -820 <= u(0,2,2)
 -820 <= u(2,0,2)
 0 <= y(0,3,2) <= 1
 0 <= y(3,0,2) <= 1
 -66 <= v(0,3,2) <= 57
 -69 <= v(3,0,2) <= 54
 -820 <= u(0,3,2)
 -820 <= u(3,0,2)
 15 <= x(1,2) <= 77
 0 <= y(1,2,2) <= 1
 0 <= y(2,1,2) <= 1
 -55 <= v(1,2,2) <= 68
 -82 <= v(2,1,2) <= 41
 -820 <= u(1,2,2)
 -820 <= u(2,1,2)
 0 <= y(1,3,2) <= 1
 0 <= y(3,1,2) <= 1
 -59 <= v(1,3,2) <= 61
 -75 <= v(3,1,2) <= 45
 -820 <= u(1,3,2)
 -820 <= u(3,1,2)
 0 <= x(2,2) <= 61
 0 <= y(2,3,2) <= 1
 0 <= y(3,2,2) <= 1
 -74 <= v(2,3,2) <= 45
 -63 <= v(3,2,2) <= 56
 -820 <= u(2,3,2)
 -820 <= u(3,2,2)
 7 <= x(3,2) <= 65
Integers
C x(0,0) y(0,1,0) y(1,0,0) v(0,1,0) v(1,0,0) u(0,1,0) u(1,0,0) y(0,2,0) y(2,0,0) 
v(0,2,0) v(2,0,0) u(0,2,0) u(2,0,0) y(0,3,0) y(3,0,0) v(0,3,0) v(3,0,0) u(0,3,0) u(3,0,0) 
x(1,0) y(1,2,0) y(2,1,0) v(1,2,0) v(2,1,0) u(1,2,0) u(2,1,0) y(1,3,0) y(3,1,0) v(1,3,0) 
v(3,1,0) u(1,3,0) u(3,1,0) x(2,0) y(2,3,0) y(3,2,0) v(2,3,0) v(3,2,0) u(2,3,0) u(3,2,0) 
x(3,0) x(0,1) y(0,1,1) y(1,0,1) v(0,1,1) v(1,0,1) u(0,1,1) u(1,0,1) y(0,2,1) y(2,0,1) 
v(0,2,1) v(2,0,1) u(0,2,1) u(2,0,1) y(0,3,1) y(3,0,1) v(0,3,1) v(3,0,1) u(0,3,1) u(3,0,1) 
x(1,1) y(1,2,1) y(2,1,1) v(1,2,1) v(2,1,1) u(1,2,1) u(2,1,1) y(1,3,1) y(3,1,1) v(1,3,1) 
v(3,1,1) u(1,3,1) u(3,1,1) x(2,1) y(2,3,1) y(3,2,1) v(2,3,1) v(3,2,1) u(2,3,1) u(3,2,1) 
x(3,1) x(0,2) y(0,1,2) y(1,0,2) v(0,1,2) v(1,0,2) u(0,1,2) u(1,0,2) y(0,2,2) y(2,0,2) 
v(0,2,2) v(2,0,2) u(0,2,2) u(2,0,2) y(0,3,2) y(3,0,2) v(0,3,2) v(3,0,2) u(0,3,2) u(3,0,2) 
x(1,2) y(1,2,2) y(2,1,2) v(1,2,2) v(2,1,2) u(1,2,2) u(2,1,2) y(1,3,2) y(3,1,2) v(1,3,2) 
v(3,1,2) u(1,3,2) u(3,1,2) x(2,2) y(2,3,2) y(3,2,2) v(2,3,2) v(3,2,2) u(2,3,2) u(3,2,2) 
x(3,2) 
End
